SAT
-48 -51 -95 49 34 -86 -4 -11 3 45 -64 78 -67 31 -42 85 -18 -47 61 -84 71 55 40 21 -96 -7 23 97 -24 39 37 46 -52 89 10 -88 62 -72 -92 -19 57 -22 -99 -56 69 16 26 20 -1 59 -74 -5 -100 25 -27 12 -41 -77 53 6 68 -87 -43 32 13 -35 -79 70 -58 -30 -17 81 -76 -8 -54 -36 -60 -28 -98 -44 15 65 -83 -90 -66 82 63 -38 -2 9 73 -75 33 29 -93 -94 -80 -91 -50 -14 0
